M+/Instances/S1-10-M+/S1-5-10-2-l-M+.txt
     100      10    0.05
       2       2       3       2       2       1       2       2       3       3       2       9      14      14       8       4      12       1       7       4       5
       2       1       2       2       2       2       1       2       3       2       2       4       1      10      13      16      14       5       8       9       7
       2       3       2       1       3       1       2       1       3       3       4       9       8       5       5      11       7       3       8       9       4
       3       1       3       1       3       1       1       2       2       3       5       2      14       5      12      15       9       9      11       1       7
       2       2       3       3       3       3       1       2       3       2      14      16       4       9       8      16       6       5       9       6       7
       3       2       3       1       3       1       3       3       3       2       7      14       8      16       5      16      13       5      10       2       5
       3       2       2       2       2       2       1       1       2       3      12       5      11       8       5      13       1      12       3      15       7
       1       1       3       2       3       3       3       2       3       2       1      11       5       3      14      12       7      10      12       6       7
       3       2       1       1       1       2       2       1       3       1       4      13      10      14      11       0      16      13       0       8       5
       1       3       2       1       1       2       1       1       2       2       8       3      11       1      15       8       1      16       1      14       4
       3       1       2       3       1       1       1       3       3       2      12      16      10       5       5       8      14      11      12       0       7
       3       2       2       2       1       3       3       3       1       2      15       9       3       1       5       4       7       6       8       0       6
       2       1       3       3       1       3       1       3       2       3      15      12       5      13       6      15       3      11      16      11       5
       1       3       3       3       2       1       2       3       3       1      11       7       6      14      16      16       2       2      15       8       7
       1       3       3       1       1       1       2       1       2       1      12       1      10      10      16      10       3       2       7       8       4
       3       3       2       3       2       1       3       2       2       2      11       8      12      13      14      16      14       9       0      11       4
       3       3       1       2       3       3       3       2       1       1       9      10      10       2       7      13      14      15       9      11       5
       3       1       1       3       1       2       3       3       2       1      12       6       1       4      11       4       0       2      13      13       7
       3       1       3       2       2       2       2       1       3       1      16      16       3      10       2       6      15      16      16       9       6
       3       2       1       2       3       2       1       1       3       1       4      10       1      16      14       2       9       5       0      14       5
       2       1       1       1       2       1       3       1       1       3      11      15       1      14      14       7       2      12       8       0       6
       1       1       1       3       1       2       1       2       2       1       9      15       3       5      14      11       1       9      12       7       5
       1       2       2       2       3       2       2       3       1       3      12      11      11      12      10       5       0      10       2      15       7
       1       3       1       2       3       2       1       2       3       2      13       4      11       7      16      11       7       9      15      15       7
       1       3       3       3       3       1       1       3       1       2      15       9       4      10      16       9       4       6       0       6       4
       1       1       2       2       3       2       1       3       1       1      11      13      10       2       7      12       1      13      12       2       5
       2       2       3       2       2       3       3       3       1       3       2      10       5      15       6       9       0       3      12      16       7
       3       1       2       2       3       1       1       2       2       1      11      15       7       2      15       9      12       5       2       3       6
       3       1       1       1       2       3       3       2       3       1       8       0      10      15       7       7       0       9       8      12       5
       1       2       2       1       3       1       3       3       3       1      16      14      11       5       4       6       2      12       6       3       6
       2       1       2       2       1       1       2       3       2       3      11       4      16       9      16      12       2      15      13       2       4
       1       3       3       1       2       2       2       2       3       3       0       4       8      12       5       0       0       4       4       6       6
       1       3       2       3       2       3       3       1       1       1      12       0      12       3      16       2      16       4      10       6       4
       3       2       3       3       1       1       2       1       1       1       3      12      10      12       0      14       4       1      10      16       7
       1       1       1       2       1       3       1       3       3       2      15      12       4       8      13      11       3      15       7       0       7
       1       2       3       1       1       2       3       1       1       1      12      12       9      11      12      13      11       9      16       1       4
       1       1       1       2       3       1       2       1       2       2       9       2       9       9       8      13       4       3       0       7       4
       2       3       1       3       2       3       3       1       1       1      16      12      12       0       9      12      10       0       8      16       6
       1       2       2       1       1       1       1       3       3       1      11       7       2      11       7      10      15       3      11       7       5
       2       3       2       2       1       2       1       1       1       3      13       5       9       7       4       0       6      13       1      13       5
       2       2       3       3       1       3       2       2       2       1       5       0       6       2       7       3       5       1       4      15       4
       3       2       2       3       2       1       2       2       2       2      10       4       7       3      11       8       4      13       6       4       4
       1       3       2       1       1       1       1       1       3       2      16       4       4       3       4      16      10      11      14      12       6
       2       2       2       2       3       1       3       1       2       3       0       7       5      13       9       8       5      15       4       7       6
       3       2       2       2       1       3       2       3       3       2      14      16       9      11      14       3      11       7      12       2       4
       3       3       1       2       1       1       3       1       2       3      15      13       2       7       3       7       7       6       6       2       5
       3       2       2       3       2       3       1       3       3       2       8       1      15       2       8      11       7       7      14       0       7
       3       3       3       3       1       1       3       2       1       3       4      13       5       0       4      13       1      15      12       0       4
       3       2       2       3       2       2       3       1       3       3      11      15      11       8       6       5       0       9       3      12       7
       2       1       1       2       1       1       1       3       2       1      10      10      16       9      10      14       7       6      16      15       4
       1       1       2       1       2       2       1       3       2       1       4      13      15      15       3       7       1      15      16       5       6
       1       1       3       1       3       3       3       2       3       3       4      12       7      15       7       2       9      12       5      13       7
       2       2       3       3       3       1       3       3       3       3      12      15      10       8       0      16       8      10      11      16       7
       3       2       3       3       3       3       1       3       2       1      15      11       5      15       7      10       6       5      15      13       5
       3       3       2       2       3       3       2       3       2       2      13      13      10       7       7       2       2      15       2      12       7
       3       1       2       1       1       1       3       1       2       2       0      16       3       9      11       9       4      11      12       3       4
       1       3       3       3       1       3       2       3       3       2       7      13      14       7      12       7       4       6       1       5       4
       2       2       1       2       3       3       2       3       2       1      10       2      13       4      13       6      16       1       4       1       6
       2       1       3       2       2       1       1       1       3       3       1       1      12      13      11       5       3      13       9      16       5
       1       2       3       3       3       3       1       3       2       3       2      10       5       4      10       4       4       2       9      10       4
       2       3       3       2       2       3       2       3       2       1      15      14       8       6      13       7       3       3      13       1       5
       2       3       1       2       3       3       2       1       3       1       4      10      10       7       3      16       1      14      11      16       7
       1       3       2       3       1       1       2       2       1       1       1       5       7      11       4       9      13       5       4      13       5
       2       2       2       1       2       3       3       1       1       2       4      14      10       4      12      11       2      10      12       6       6
       1       2       2       2       2       2       1       2       2       3       5      14       3      12       2       2       1      11       0      11       4
       1       1       1       1       1       1       1       2       1       2       0       2      11       8      16      14       1      12       0      11       6
       3       2       1       1       1       2       3       2       2       2      13       9       8       5      16       1       9      16       0       5       6
       3       3       2       3       2       2       1       2       1       2       1      15      16       3      12      11       2       1       3       8       5
       1       1       2       3       1       1       2       1       2       3       1      12      15      12       8       6       4      16       8      14       7
       2       1       1       2       3       3       3       2       2       3       8       4      16       7       4      16       7       5       3      10       7
       2       3       2       1       3       3       2       2       3       3      13       1       4       1       5       6       0      15      10      15       5
       3       2       3       1       2       3       2       1       2       1      13       3      14       3       1      16      14      10      11      13       6
       3       2       2       1       1       1       3       2       2       3      13       1      11       2      13       7       4       2       1       4       5
       3       1       3       3       1       2       2       1       2       2      11       5       4       7      16      14       8      11       8       3       7
       3       2       2       3       3       3       1       3       1       3       2       7       9       2       6       9       1      12      10      11       7
       3       1       3       3       2       1       2       1       1       1      11       4      13       5       6      15       7      12      11       6       4
       1       3       3       3       3       3       2       3       3       3       2       8      15      12      15       8      15       3       1       3       6
       1       2       2       1       2       2       1       3       1       2       4       3       0       2       7       9       0      15      14      13       7
       3       3       2       1       1       1       3       3       1       1       4       1      12       3       9      13       9      14       8       5       5
       2       1       2       2       2       3       2       1       2       3       6      12       9      10       1       2      15       7      16       3       5
       2       1       3       3       1       1       2       2       1       2      14       0      10       9       4       0      13       6       3      10       7
       1       1       1       3       2       2       2       2       1       3      13      15       8       6      14      12       3      10       6      13       7
       2       2       3       2       1       1       3       3       1       1      14       5       8       3      10       6       0       2       8       6       6
       3       3       3       3       2       2       3       3       1       3      13      11       7       7       6       5       5       2       7      15       7
       1       3       1       1       3       2       2       3       1       2      14       8      12       1      10      14       3       5      12      16       6
       3       3       1       3       1       1       2       2       2       3      11      10       7       2       1       9       3      12      16      16       4
       2       3       2       1       1       1       2       3       3       1       6      13       3      15       8       1      11       8       0       1       4
       3       3       3       1       3       1       3       2       2       2       4       3      13       3       4      11       2       4       7       7       4
       2       3       2       1       1       3       1       3       1       1       6      12       8       4       5      10       1      12       7      13       6
       1       2       2       2       2       2       2       1       3       3       6       1      12       2       8      13       0      14       9      10       6
       2       3       2       2       3       2       3       2       3       1      16      10      11       5      14       3       7      15       4       2       7
       1       1       3       1       2       3       1       3       1       3      12       7      15       6       1       5       0       4       7       6       6
       2       2       2       2       2       1       3       3       1       3       6       4       9      15      10       3      11      12      10      11       5
       3       2       3       3       3       3       1       2       1       3      11      10       4      14       9      11      15       2      10       0       5
       1       2       1       3       3       3       2       3       1       1       5       1      14      11       5       8       7       2      14       9       5
       3       1       1       2       3       3       2       2       3       1       7      11      13      15      10       5      10       4       9      15       7
       3       3       3       1       2       2       2       3       1       2      13      16       4       3       5       9      10       0      11       6       5
       3       2       2       2       2       3       1       1       3       2      15       1       8       5       1      13      12      13       3      13       7
       1       3       3       1       2       3       3       1       2       1      10       6       5      14       2       0       5      12       3       0       4
       3       3       1       3       3       3       2       1       3       1       7      16       0      10       4       3       3      10      16       5       7
      89      93      78      96      90      63      71      73      90      88
     213     191     226     217     195     153     158     219     185     215
     428     439     408     535     451     208     221     244     438     615